0001 9
0002 24
0003 9
0004 2
0005 17
0006 5
0007 23
0008 10
0009 10
0010 6
0011 6
0012 4
0013 1
0014 2
0015 4
0016 24
0017 5
0018 21
0019 15
0020 13
0021 2
0022 22
0023 11
0024 11
0025 18
0026 13
0027 13
0028 3
0029 4
0030 8
0031 20
0032 8
0033 21
0034 21
0035 8
0036 24
0037 2
0038 5
0039 17
0040 4
0041 17
0042 16
0043 7
0044 16
0045 4
0046 18
0047 20
0048 13
0049 5
0050 22
0051 24
0052 3
0053 3
0054 2
0055 3
0056 10
0057 15
0058 18
0059 15
0060 8
0061 23
0062 16
0063 24
0064 21
0065 1
0066 24
0067 5
0068 1
0069 5
0070 24
0071 24
0072 1
0073 3
0074 4
0075 20
0076 14
0077 19
0078 11
0079 1
0080 17
0081 19
0082 1
0083 19
0084 19
0085 19
0086 19
0087 19
0088 7
0089 7
0090 7
0091 19
0092 2
0093 24
0094 1
0095 17
0096 10
0097 1
0098 24
0099 18
0100 11
0101 6
0102 4
0103 2
0104 3
0105 1
0106 14
0107 1
0108 14
0109 4
0110 5
0111 24
0112 5
0113 23
0114 12
0115 2
0116 11
0117 20
0118 24
0119 24
0120 22
0121 5
0122 1
0123 24
0124 20
0125 14
0126 1
0127 12
0128 12
0129 12
0130 3
0131 18
0132 22
0133 3
0134 12
0135 15
0136 12
0137 7
0138 12
0139 2
0140 12
0141 16
0142 16
0143 16
0144 24
0145 22
0146 21
0147 8
0148 24
0149 24
0150 23
0151 22
0152 14
0153 24
0154 17
0155 14
0156 1
0157 14
0158 1
0159 8
0160 24
0161 23
0162 24
0163 15
0164 3
0165 22
0166 23
0167 14
0168 21
0169 1
0170 2
0171 24
0172 1
0173 3
0174 9
0175 5
0176 9
0177 6
0178 24
0179 23
0180 23
0181 2
0182 6
0183 9
0184 10
0185 24
0186 4
0187 6
0188 24
0189 4
0190 23
